job_count = 45 ;
duration = [|3, 19, 8, 10, 2, 5, 4, 8, 7|22, 5, 4, 8, 14, 6, 3, 6, 3|9, 20, 9, 17, 4, 6, 5, 8, 6|23, 7, 7, 13, 3, 9, 16, 14, 14|8, 11, 22, 10, 10, 15, 14, 10, 11|16, 17, 17, 6, 8, 9, 3, 14, 11|5, 18, 15, 10, 14, 9, 3, 10, 8|5, 9, 4, 15, 17, 11, 8, 3, 11|19, 21, 11, 14, 14, 8, 13, 9, 12|14, 17, 14, 14, 19, 15, 17, 10, 3|15, 17, 10, 17, 12, 8, 13, 11, 6|12, 3, 15, 4, 15, 10, 12, 13, 9|13, 17, 6, 2, 13, 13, 9, 13, 8|17, 8, 3, 18, 6, 12, 8, 7, 4|14, 10, 11, 19, 11, 3, 16, 14, 2|7, 20, 16, 16, 6, 3, 17, 15, 9|20, 22, 19, 15, 4, 11, 13, 11, 7|15, 14, 2, 16, 11, 7, 15, 5, 6|19, 10, 13, 18, 14, 5, 5, 9, 14|12, 2, 21, 10, 5, 14, 9, 12, 4|9, 17, 4, 13, 4, 15, 15, 5, 9|19, 15, 11, 11, 3, 4, 14, 6, 6|15, 8, 4, 11, 16, 3, 16, 14, 9|20, 11, 2, 10, 10, 17, 15, 5, 13|18, 16, 10, 17, 11, 10, 14, 2, 5|14, 21, 12, 3, 3, 17, 12, 10, 6|15, 21, 10, 13, 10, 18, 13, 15, 3|19, 17, 4, 17, 17, 7, 14, 5, 7|5, 21, 3, 20, 19, 2, 6, 3, 6|20, 21, 13, 14, 2, 8, 15, 13, 13|8, 8, 11, 14, 7, 14, 8, 12, 2|19, 9, 7, 18, 16, 15, 5, 3, 3|9, 15, 21, 11, 4, 6, 15, 14, 3|11, 20, 8, 15, 11, 2, 2, 9, 8|14, 15, 11, 14, 13, 15, 13, 6, 2|21, 16, 18, 11, 14, 18, 17, 6, 14|10, 10, 19, 10, 3, 8, 2, 11, 11|9, 14, 5, 3, 9, 13, 9, 3, 11|24, 2, 13, 17, 12, 5, 16, 12, 7|19, 13, 11, 18, 7, 16, 10, 13, 12|23, 2, 15, 7, 5, 14, 3, 2, 12|12, 23, 14, 4, 18, 11, 3, 6, 5|13, 9, 2, 2, 19, 11, 9, 6, 6|19, 9, 13, 8, 14, 14, 16, 9, 12|4, 11, 18, 10, 12, 13, 17, 2, 6|] ;
machine_count = 9 ;
cost = [|30, 19, 22, 36, 32, 38, 39, 31, 45|27, 27, 22, 22, 43, 34, 36, 41, 48|29, 30, 30, 26, 41, 45, 26, 41, 43|27, 22, 20, 33, 43, 23, 41, 48, 29|20, 26, 19, 21, 36, 23, 42, 51, 33|30, 21, 28, 39, 35, 30, 37, 31, 46|20, 23, 29, 21, 22, 43, 45, 40, 31|17, 17, 21, 39, 30, 30, 46, 50, 51|28, 32, 33, 20, 22, 38, 25, 29, 39|16, 28, 31, 25, 37, 44, 41, 50, 36|30, 28, 26, 27, 43, 25, 46, 47, 52|17, 32, 30, 24, 41, 37, 37, 46, 50|28, 19, 23, 20, 27, 43, 39, 28, 29|30, 33, 29, 22, 34, 43, 42, 38, 28|30, 23, 24, 36, 30, 28, 44, 50, 45|26, 33, 35, 30, 33, 37, 41, 32, 35|27, 24, 34, 32, 29, 40, 41, 29, 31|31, 31, 25, 32, 32, 39, 46, 47, 46|28, 19, 20, 25, 30, 26, 43, 39, 48|28, 32, 24, 22, 36, 26, 39, 39, 45|27, 31, 28, 20, 24, 28, 41, 30, 42|18, 18, 23, 38, 36, 33, 30, 37, 43|28, 33, 37, 38, 40, 32, 26, 41, 45|28, 26, 19, 24, 28, 43, 25, 48, 32|27, 27, 20, 29, 23, 35, 28, 34, 28|18, 32, 32, 39, 33, 27, 39, 41, 38|30, 27, 37, 32, 28, 24, 44, 49, 39|27, 22, 19, 34, 36, 26, 26, 51, 43|26, 22, 31, 39, 43, 43, 42, 36, 30|27, 32, 27, 33, 25, 44, 42, 33, 51|17, 33, 36, 30, 35, 31, 28, 48, 45|21, 19, 20, 20, 23, 28, 33, 41, 51|28, 32, 19, 39, 23, 26, 32, 39, 51|21, 25, 31, 33, 22, 24, 24, 45, 33|30, 18, 28, 21, 39, 32, 47, 31, 38|25, 20, 20, 24, 29, 27, 33, 43, 52|28, 25, 28, 21, 39, 25, 27, 28, 40|24, 27, 31, 26, 39, 45, 47, 29, 51|31, 22, 24, 24, 42, 26, 44, 40, 32|17, 30, 19, 22, 29, 24, 42, 40, 50|17, 21, 19, 24, 43, 33, 27, 47, 48|21, 19, 28, 22, 42, 40, 44, 32, 27|23, 23, 31, 28, 25, 36, 29, 43, 32|25, 18, 37, 32, 37, 44, 43, 48, 37|26, 19, 30, 38, 34, 37, 35, 44, 50|] ;
deadline = [33, 33, 33, 33, 33, 33, 33, 33, 33, 33, 33, 33, 33, 33, 33, 33, 33, 33, 33, 33, 33, 33, 33, 33, 33, 33, 33, 33, 33, 33, 33, 33, 33, 33, 33, 33, 33, 33, 33, 33, 33, 33, 33, 33, 33] ;
release = [0, 0, 0, 0, 0, 0, 0, 0, 0, 0, 0, 0, 0, 0, 0, 0, 0, 0, 0, 0, 0, 0, 0, 0, 0, 0, 0, 0, 0, 0, 0, 0, 0, 0, 0, 0, 0, 0, 0, 0, 0, 0, 0, 0, 0] ;
resource = [|2, 2, 2, 2, 2, 2, 2, 2, 2|8, 8, 8, 8, 8, 8, 8, 8, 8|1, 1, 1, 1, 1, 1, 1, 1, 1|8, 8, 8, 8, 8, 8, 8, 8, 8|6, 6, 6, 6, 6, 6, 6, 6, 6|8, 8, 8, 8, 8, 8, 8, 8, 8|2, 2, 2, 2, 2, 2, 2, 2, 2|4, 4, 4, 4, 4, 4, 4, 4, 4|7, 7, 7, 7, 7, 7, 7, 7, 7|2, 2, 2, 2, 2, 2, 2, 2, 2|6, 6, 6, 6, 6, 6, 6, 6, 6|5, 5, 5, 5, 5, 5, 5, 5, 5|6, 6, 6, 6, 6, 6, 6, 6, 6|8, 8, 8, 8, 8, 8, 8, 8, 8|6, 6, 6, 6, 6, 6, 6, 6, 6|5, 5, 5, 5, 5, 5, 5, 5, 5|7, 7, 7, 7, 7, 7, 7, 7, 7|1, 1, 1, 1, 1, 1, 1, 1, 1|8, 8, 8, 8, 8, 8, 8, 8, 8|2, 2, 2, 2, 2, 2, 2, 2, 2|9, 9, 9, 9, 9, 9, 9, 9, 9|9, 9, 9, 9, 9, 9, 9, 9, 9|7, 7, 7, 7, 7, 7, 7, 7, 7|7, 7, 7, 7, 7, 7, 7, 7, 7|9, 9, 9, 9, 9, 9, 9, 9, 9|9, 9, 9, 9, 9, 9, 9, 9, 9|9, 9, 9, 9, 9, 9, 9, 9, 9|5, 5, 5, 5, 5, 5, 5, 5, 5|2, 2, 2, 2, 2, 2, 2, 2, 2|2, 2, 2, 2, 2, 2, 2, 2, 2|6, 6, 6, 6, 6, 6, 6, 6, 6|1, 1, 1, 1, 1, 1, 1, 1, 1|1, 1, 1, 1, 1, 1, 1, 1, 1|4, 4, 4, 4, 4, 4, 4, 4, 4|6, 6, 6, 6, 6, 6, 6, 6, 6|4, 4, 4, 4, 4, 4, 4, 4, 4|2, 2, 2, 2, 2, 2, 2, 2, 2|8, 8, 8, 8, 8, 8, 8, 8, 8|5, 5, 5, 5, 5, 5, 5, 5, 5|8, 8, 8, 8, 8, 8, 8, 8, 8|7, 7, 7, 7, 7, 7, 7, 7, 7|1, 1, 1, 1, 1, 1, 1, 1, 1|1, 1, 1, 1, 1, 1, 1, 1, 1|3, 3, 3, 3, 3, 3, 3, 3, 3|6, 6, 6, 6, 6, 6, 6, 6, 6|] ;
capacities = [10, 10, 10, 10, 10, 10, 10, 10, 10] ;
